data/MCDM/NO_CORR/GEN_FROM_60/16_ITEMS_1000_GEN/K5016W16.KNP.mps
NAME          BLANK   
ROWS
 N  OBJROW
 L  R0000000
COLUMNS
    C0000000  OBJROW     -578.         R0000000  448.        
    C0000001  OBJROW     -547.         R0000000  890.        
    C0000002  OBJROW     -384.         R0000000  104.        
    C0000003  OBJROW     -518.         R0000000  410.        
    C0000004  OBJROW     -91.          R0000000  764.        
    C0000005  OBJROW     -119.         R0000000  878.        
    C0000006  OBJROW     -399.         R0000000  311.        
    C0000007  OBJROW     -56.          R0000000  957.        
    C0000008  OBJROW     -108.         R0000000  493.        
    C0000009  OBJROW     -79.          R0000000  23.         
    C0000010  OBJROW     -308.         R0000000  172.        
    C0000011  OBJROW     -410.         R0000000  876.        
    C0000012  OBJROW     -450.         R0000000  948.        
    C0000013  OBJROW     -595.         R0000000  251.        
    C0000014  OBJROW     -339.         R0000000  102.        
    C0000015  OBJROW     -768.         R0000000  341.        
RHS
    RHS       R0000000  13852.      
BOUNDS
 BV BOUND     C0000000  1.          
 BV BOUND     C0000001  1.          
 BV BOUND     C0000002  1.          
 BV BOUND     C0000003  1.          
 BV BOUND     C0000004  1.          
 BV BOUND     C0000005  1.          
 BV BOUND     C0000006  1.          
 BV BOUND     C0000007  1.          
 BV BOUND     C0000008  1.          
 BV BOUND     C0000009  1.          
 BV BOUND     C0000010  1.          
 BV BOUND     C0000011  1.          
 BV BOUND     C0000012  1.          
 BV BOUND     C0000013  1.          
 BV BOUND     C0000014  1.          
 BV BOUND     C0000015  1.          
ENDATA
