data/MCDM/NO_CORR/GEN_FROM_60/16_ITEMS_1000_GEN/K5016W16.KNP.txt
N 16
M 17
LC 16
LC 17
LC 18
LC 19
LC 20
LC 21
LC 22
LC 23
LC 24
LC 25
LC 26
LC 27
LC 28
LC 29
LC 30
LC 31
LR 1
LR 2
LR 3
LR 4
LR 5
LR 6
LR 7
LR 8
LR 9
LR 10
LR 11
LR 12
LR 13
LR 14
LR 15
LR 16
LR 17
LO -578
LO -547
LO -384
LO -518
LO -91
LO -119
LO -399
LO -56
LO -108
LO -79
LO -308
LO -410
LO -450
LO -595
LO -339
LO -768
OS 1
IC 716
IC 252
IC 69
IC 894
IC 739
IC 215
IC 343
IC 688
IC 460
IC 579
IC 502
IC 166
IC 599
IC 471
IC 467
IC 376
IB 3768
